(set-info :category "industrial")
(set-info :status sat)
(declare-fun x00 () (_ BitVec 8))
(declare-fun x01 () (_ BitVec 8))
(declare-fun x04 () (_ BitVec 8))
(declare-fun x05 () (_ BitVec 8))
(declare-fun x07 () (_ BitVec 8))
(declare-fun x08 () (_ BitVec 8))
(declare-fun x10 () (_ BitVec 8))
(declare-fun x11 () (_ BitVec 8))
(declare-fun x12 () (_ BitVec 8))
(declare-fun x18 () (_ BitVec 8))
(declare-fun x22 () (_ BitVec 8))
(declare-fun x23 () (_ BitVec 8))
(declare-fun x25 () (_ BitVec 8))
(declare-fun x27 () (_ BitVec 8))
(declare-fun x28 () (_ BitVec 8))
(declare-fun x30 () (_ BitVec 8))
(declare-fun x32 () (_ BitVec 8))
(declare-fun x33 () (_ BitVec 8))
(declare-fun x35 () (_ BitVec 8))
(declare-fun x36 () (_ BitVec 8))
(declare-fun x37 () (_ BitVec 8))
(declare-fun x38 () (_ BitVec 8))
(declare-fun x41 () (_ BitVec 8))
(declare-fun x43 () (_ BitVec 8))
(declare-fun x46 () (_ BitVec 8))
(declare-fun x47 () (_ BitVec 8))
(declare-fun x51 () (_ BitVec 8))
(declare-fun x52 () (_ BitVec 8))
(declare-fun x55 () (_ BitVec 8))
(declare-fun x56 () (_ BitVec 8))
(declare-fun x57 () (_ BitVec 8))
(declare-fun x60 () (_ BitVec 8))
(declare-fun x61 () (_ BitVec 8))
(declare-fun x62 () (_ BitVec 8))
(declare-fun x63 () (_ BitVec 8))
(declare-fun x64 () (_ BitVec 8))
(declare-fun x67 () (_ BitVec 8))
(declare-fun x72 () (_ BitVec 8))
(declare-fun x73 () (_ BitVec 8))
(declare-fun x74 () (_ BitVec 8))
(declare-fun x78 () (_ BitVec 8))
(declare-fun x80 () (_ BitVec 8))
(declare-fun x81 () (_ BitVec 8))
(declare-fun x84 () (_ BitVec 8))
(declare-fun x85 () (_ BitVec 8))
(declare-fun x86 () (_ BitVec 8))
(declare-fun x88 () (_ BitVec 8))
(assert (bvult x00 (_ bv9 8)))
(assert (bvult x01 (_ bv9 8)))
(assert (bvult x04 (_ bv9 8)))
(assert (bvult x05 (_ bv9 8)))
(assert (bvult x07 (_ bv9 8)))
(assert (bvult x08 (_ bv9 8)))
(assert (bvult x10 (_ bv9 8)))
(assert (bvult x11 (_ bv9 8)))
(assert (bvult x12 (_ bv9 8)))
(assert (bvult x18 (_ bv9 8)))
(assert (bvult x22 (_ bv9 8)))
(assert (bvult x23 (_ bv9 8)))
(assert (bvult x25 (_ bv9 8)))
(assert (bvult x27 (_ bv9 8)))
(assert (bvult x28 (_ bv9 8)))
(assert (bvult x30 (_ bv9 8)))
(assert (bvult x32 (_ bv9 8)))
(assert (bvult x33 (_ bv9 8)))
(assert (bvult x35 (_ bv9 8)))
(assert (bvult x36 (_ bv9 8)))
(assert (bvult x37 (_ bv9 8)))
(assert (bvult x38 (_ bv9 8)))
(assert (bvult x41 (_ bv9 8)))
(assert (bvult x43 (_ bv9 8)))
(assert (bvult x46 (_ bv9 8)))
(assert (bvult x47 (_ bv9 8)))
(assert (bvult x51 (_ bv9 8)))
(assert (bvult x52 (_ bv9 8)))
(assert (bvult x55 (_ bv9 8)))
(assert (bvult x56 (_ bv9 8)))
(assert (bvult x57 (_ bv9 8)))
(assert (bvult x60 (_ bv9 8)))
(assert (bvult x61 (_ bv9 8)))
(assert (bvult x62 (_ bv9 8)))
(assert (bvult x63 (_ bv9 8)))
(assert (bvult x64 (_ bv9 8)))
(assert (bvult x67 (_ bv9 8)))
(assert (bvult x72 (_ bv9 8)))
(assert (bvult x73 (_ bv9 8)))
(assert (bvult x74 (_ bv9 8)))
(assert (bvult x78 (_ bv9 8)))
(assert (bvult x80 (_ bv9 8)))
(assert (bvult x81 (_ bv9 8)))
(assert (bvult x84 (_ bv9 8)))
(assert (bvult x85 (_ bv9 8)))
(assert (bvult x86 (_ bv9 8)))
(assert (bvult x88 (_ bv9 8)))
(assert (not (= x00 x01)))
(assert (not (= x00 (_ bv9 8))))
(assert (not (= x00 (_ bv4 8))))
(assert (not (= x00 x04)))
(assert (not (= x00 x05)))
(assert (not (= x00 (_ bv5 8))))
(assert (not (= x00 x07)))
(assert (not (= x00 x08)))
(assert (not (= x01 (_ bv9 8))))
(assert (not (= x01 (_ bv4 8))))
(assert (not (= x01 x04)))
(assert (not (= x01 x05)))
(assert (not (= x01 (_ bv5 8))))
(assert (not (= x01 x07)))
(assert (not (= x01 x08)))
(assert (not (= (_ bv9 8) (_ bv4 8))))
(assert (not (= (_ bv9 8) x04)))
(assert (not (= (_ bv9 8) x05)))
(assert (not (= (_ bv9 8) (_ bv5 8))))
(assert (not (= (_ bv9 8) x07)))
(assert (not (= (_ bv9 8) x08)))
(assert (not (= (_ bv4 8) x04)))
(assert (not (= (_ bv4 8) x05)))
(assert (not (= (_ bv4 8) (_ bv5 8))))
(assert (not (= (_ bv4 8) x07)))
(assert (not (= (_ bv4 8) x08)))
(assert (not (= x04 x05)))
(assert (not (= x04 (_ bv5 8))))
(assert (not (= x04 x07)))
(assert (not (= x04 x08)))
(assert (not (= x05 (_ bv5 8))))
(assert (not (= x05 x07)))
(assert (not (= x05 x08)))
(assert (not (= (_ bv5 8) x07)))
(assert (not (= (_ bv5 8) x08)))
(assert (not (= x07 x08)))
(assert (not (= x10 x11)))
(assert (not (= x10 x12)))
(assert (not (= x10 (_ bv9 8))))
(assert (not (= x10 (_ bv1 8))))
(assert (not (= x10 (_ bv6 8))))
(assert (not (= x10 (_ bv4 8))))
(assert (not (= x10 (_ bv2 8))))
(assert (not (= x10 x18)))
(assert (not (= x11 x12)))
(assert (not (= x11 (_ bv9 8))))
(assert (not (= x11 (_ bv1 8))))
(assert (not (= x11 (_ bv6 8))))
(assert (not (= x11 (_ bv4 8))))
(assert (not (= x11 (_ bv2 8))))
(assert (not (= x11 x18)))
(assert (not (= x12 (_ bv9 8))))
(assert (not (= x12 (_ bv1 8))))
(assert (not (= x12 (_ bv6 8))))
(assert (not (= x12 (_ bv4 8))))
(assert (not (= x12 (_ bv2 8))))
(assert (not (= x12 x18)))
(assert (not (= (_ bv9 8) (_ bv1 8))))
(assert (not (= (_ bv9 8) (_ bv6 8))))
(assert (not (= (_ bv9 8) (_ bv4 8))))
(assert (not (= (_ bv9 8) (_ bv2 8))))
(assert (not (= (_ bv9 8) x18)))
(assert (not (= (_ bv1 8) (_ bv6 8))))
(assert (not (= (_ bv1 8) (_ bv4 8))))
(assert (not (= (_ bv1 8) (_ bv2 8))))
(assert (not (= (_ bv1 8) x18)))
(assert (not (= (_ bv6 8) (_ bv4 8))))
(assert (not (= (_ bv6 8) (_ bv2 8))))
(assert (not (= (_ bv6 8) x18)))
(assert (not (= (_ bv4 8) (_ bv2 8))))
(assert (not (= (_ bv4 8) x18)))
(assert (not (= (_ bv2 8) x18)))
(assert (not (= (_ bv3 8) (_ bv1 8))))
(assert (not (= (_ bv3 8) x22)))
(assert (not (= (_ bv3 8) x23)))
(assert (not (= (_ bv3 8) (_ bv2 8))))
(assert (not (= (_ bv3 8) x25)))
(assert (not (= (_ bv3 8) (_ bv8 8))))
(assert (not (= (_ bv3 8) x27)))
(assert (not (= (_ bv3 8) x28)))
(assert (not (= (_ bv1 8) x22)))
(assert (not (= (_ bv1 8) x23)))
(assert (not (= (_ bv1 8) (_ bv2 8))))
(assert (not (= (_ bv1 8) x25)))
(assert (not (= (_ bv1 8) (_ bv8 8))))
(assert (not (= (_ bv1 8) x27)))
(assert (not (= (_ bv1 8) x28)))
(assert (not (= x22 x23)))
(assert (not (= x22 (_ bv2 8))))
(assert (not (= x22 x25)))
(assert (not (= x22 (_ bv8 8))))
(assert (not (= x22 x27)))
(assert (not (= x22 x28)))
(assert (not (= x23 (_ bv2 8))))
(assert (not (= x23 x25)))
(assert (not (= x23 (_ bv8 8))))
(assert (not (= x23 x27)))
(assert (not (= x23 x28)))
(assert (not (= (_ bv2 8) x25)))
(assert (not (= (_ bv2 8) (_ bv8 8))))
(assert (not (= (_ bv2 8) x27)))
(assert (not (= (_ bv2 8) x28)))
(assert (not (= x25 (_ bv8 8))))
(assert (not (= x25 x27)))
(assert (not (= x25 x28)))
(assert (not (= (_ bv8 8) x27)))
(assert (not (= (_ bv8 8) x28)))
(assert (not (= x27 x28)))
(assert (not (= x30 (_ bv9 8))))
(assert (not (= x30 x32)))
(assert (not (= x30 x33)))
(assert (not (= x30 (_ bv7 8))))
(assert (not (= x30 x35)))
(assert (not (= x30 x36)))
(assert (not (= x30 x37)))
(assert (not (= x30 x38)))
(assert (not (= (_ bv9 8) x32)))
(assert (not (= (_ bv9 8) x33)))
(assert (not (= (_ bv9 8) (_ bv7 8))))
(assert (not (= (_ bv9 8) x35)))
(assert (not (= (_ bv9 8) x36)))
(assert (not (= (_ bv9 8) x37)))
(assert (not (= (_ bv9 8) x38)))
(assert (not (= x32 x33)))
(assert (not (= x32 (_ bv7 8))))
(assert (not (= x32 x35)))
(assert (not (= x32 x36)))
(assert (not (= x32 x37)))
(assert (not (= x32 x38)))
(assert (not (= x33 (_ bv7 8))))
(assert (not (= x33 x35)))
(assert (not (= x33 x36)))
(assert (not (= x33 x37)))
(assert (not (= x33 x38)))
(assert (not (= (_ bv7 8) x35)))
(assert (not (= (_ bv7 8) x36)))
(assert (not (= (_ bv7 8) x37)))
(assert (not (= (_ bv7 8) x38)))
(assert (not (= x35 x36)))
(assert (not (= x35 x37)))
(assert (not (= x35 x38)))
(assert (not (= x36 x37)))
(assert (not (= x36 x38)))
(assert (not (= x37 x38)))
(assert (not (= (_ bv8 8) x41)))
(assert (not (= (_ bv8 8) (_ bv7 8))))
(assert (not (= (_ bv8 8) x43)))
(assert (not (= (_ bv8 8) (_ bv9 8))))
(assert (not (= (_ bv8 8) (_ bv5 8))))
(assert (not (= (_ bv8 8) x46)))
(assert (not (= (_ bv8 8) x47)))
(assert (not (= (_ bv8 8) (_ bv6 8))))
(assert (not (= x41 (_ bv7 8))))
(assert (not (= x41 x43)))
(assert (not (= x41 (_ bv9 8))))
(assert (not (= x41 (_ bv5 8))))
(assert (not (= x41 x46)))
(assert (not (= x41 x47)))
(assert (not (= x41 (_ bv6 8))))
(assert (not (= (_ bv7 8) x43)))
(assert (not (= (_ bv7 8) (_ bv9 8))))
(assert (not (= (_ bv7 8) (_ bv5 8))))
(assert (not (= (_ bv7 8) x46)))
(assert (not (= (_ bv7 8) x47)))
(assert (not (= (_ bv7 8) (_ bv6 8))))
(assert (not (= x43 (_ bv9 8))))
(assert (not (= x43 (_ bv5 8))))
(assert (not (= x43 x46)))
(assert (not (= x43 x47)))
(assert (not (= x43 (_ bv6 8))))
(assert (not (= (_ bv9 8) (_ bv5 8))))
(assert (not (= (_ bv9 8) x46)))
(assert (not (= (_ bv9 8) x47)))
(assert (not (= (_ bv9 8) (_ bv6 8))))
(assert (not (= (_ bv5 8) x46)))
(assert (not (= (_ bv5 8) x47)))
(assert (not (= (_ bv5 8) (_ bv6 8))))
(assert (not (= x46 x47)))
(assert (not (= x46 (_ bv6 8))))
(assert (not (= x47 (_ bv6 8))))
(assert (not (= (_ bv2 8) x51)))
(assert (not (= (_ bv2 8) x52)))
(assert (not (= (_ bv2 8) (_ bv8 8))))
(assert (not (= (_ bv2 8) (_ bv3 8))))
(assert (not (= (_ bv2 8) x55)))
(assert (not (= (_ bv2 8) x56)))
(assert (not (= (_ bv2 8) x57)))
(assert (not (= (_ bv2 8) (_ bv7 8))))
(assert (not (= x51 x52)))
(assert (not (= x51 (_ bv8 8))))
(assert (not (= x51 (_ bv3 8))))
(assert (not (= x51 x55)))
(assert (not (= x51 x56)))
(assert (not (= x51 x57)))
(assert (not (= x51 (_ bv7 8))))
(assert (not (= x52 (_ bv8 8))))
(assert (not (= x52 (_ bv3 8))))
(assert (not (= x52 x55)))
(assert (not (= x52 x56)))
(assert (not (= x52 x57)))
(assert (not (= x52 (_ bv7 8))))
(assert (not (= (_ bv8 8) (_ bv3 8))))
(assert (not (= (_ bv8 8) x55)))
(assert (not (= (_ bv8 8) x56)))
(assert (not (= (_ bv8 8) x57)))
(assert (not (= (_ bv8 8) (_ bv7 8))))
(assert (not (= (_ bv3 8) x55)))
(assert (not (= (_ bv3 8) x56)))
(assert (not (= (_ bv3 8) x57)))
(assert (not (= (_ bv3 8) (_ bv7 8))))
(assert (not (= x55 x56)))
(assert (not (= x55 x57)))
(assert (not (= x55 (_ bv7 8))))
(assert (not (= x56 x57)))
(assert (not (= x56 (_ bv7 8))))
(assert (not (= x57 (_ bv7 8))))
(assert (not (= x60 x61)))
(assert (not (= x60 x62)))
(assert (not (= x60 x63)))
(assert (not (= x60 x64)))
(assert (not (= x60 (_ bv1 8))))
(assert (not (= x60 (_ bv6 8))))
(assert (not (= x60 x67)))
(assert (not (= x60 (_ bv4 8))))
(assert (not (= x61 x62)))
(assert (not (= x61 x63)))
(assert (not (= x61 x64)))
(assert (not (= x61 (_ bv1 8))))
(assert (not (= x61 (_ bv6 8))))
(assert (not (= x61 x67)))
(assert (not (= x61 (_ bv4 8))))
(assert (not (= x62 x63)))
(assert (not (= x62 x64)))
(assert (not (= x62 (_ bv1 8))))
(assert (not (= x62 (_ bv6 8))))
(assert (not (= x62 x67)))
(assert (not (= x62 (_ bv4 8))))
(assert (not (= x63 x64)))
(assert (not (= x63 (_ bv1 8))))
(assert (not (= x63 (_ bv6 8))))
(assert (not (= x63 x67)))
(assert (not (= x63 (_ bv4 8))))
(assert (not (= x64 (_ bv1 8))))
(assert (not (= x64 (_ bv6 8))))
(assert (not (= x64 x67)))
(assert (not (= x64 (_ bv4 8))))
(assert (not (= (_ bv1 8) (_ bv6 8))))
(assert (not (= (_ bv1 8) x67)))
(assert (not (= (_ bv1 8) (_ bv4 8))))
(assert (not (= (_ bv6 8) x67)))
(assert (not (= (_ bv6 8) (_ bv4 8))))
(assert (not (= x67 (_ bv4 8))))
(assert (not (= (_ bv5 8) (_ bv6 8))))
(assert (not (= (_ bv5 8) x72)))
(assert (not (= (_ bv5 8) x73)))
(assert (not (= (_ bv5 8) x74)))
(assert (not (= (_ bv5 8) (_ bv8 8))))
(assert (not (= (_ bv5 8) (_ bv9 8))))
(assert (not (= (_ bv5 8) (_ bv1 8))))
(assert (not (= (_ bv5 8) x78)))
(assert (not (= (_ bv6 8) x72)))
(assert (not (= (_ bv6 8) x73)))
(assert (not (= (_ bv6 8) x74)))
(assert (not (= (_ bv6 8) (_ bv8 8))))
(assert (not (= (_ bv6 8) (_ bv9 8))))
(assert (not (= (_ bv6 8) (_ bv1 8))))
(assert (not (= (_ bv6 8) x78)))
(assert (not (= x72 x73)))
(assert (not (= x72 x74)))
(assert (not (= x72 (_ bv8 8))))
(assert (not (= x72 (_ bv9 8))))
(assert (not (= x72 (_ bv1 8))))
(assert (not (= x72 x78)))
(assert (not (= x73 x74)))
(assert (not (= x73 (_ bv8 8))))
(assert (not (= x73 (_ bv9 8))))
(assert (not (= x73 (_ bv1 8))))
(assert (not (= x73 x78)))
(assert (not (= x74 (_ bv8 8))))
(assert (not (= x74 (_ bv9 8))))
(assert (not (= x74 (_ bv1 8))))
(assert (not (= x74 x78)))
(assert (not (= (_ bv8 8) (_ bv9 8))))
(assert (not (= (_ bv8 8) (_ bv1 8))))
(assert (not (= (_ bv8 8) x78)))
(assert (not (= (_ bv9 8) (_ bv1 8))))
(assert (not (= (_ bv9 8) x78)))
(assert (not (= (_ bv1 8) x78)))
(assert (not (= x80 x81)))
(assert (not (= x80 (_ bv8 8))))
(assert (not (= x80 (_ bv2 8))))
(assert (not (= x80 x84)))
(assert (not (= x80 x85)))
(assert (not (= x80 x86)))
(assert (not (= x80 (_ bv3 8))))
(assert (not (= x80 x88)))
(assert (not (= x81 (_ bv8 8))))
(assert (not (= x81 (_ bv2 8))))
(assert (not (= x81 x84)))
(assert (not (= x81 x85)))
(assert (not (= x81 x86)))
(assert (not (= x81 (_ bv3 8))))
(assert (not (= x81 x88)))
(assert (not (= (_ bv8 8) (_ bv2 8))))
(assert (not (= (_ bv8 8) x84)))
(assert (not (= (_ bv8 8) x85)))
(assert (not (= (_ bv8 8) x86)))
(assert (not (= (_ bv8 8) (_ bv3 8))))
(assert (not (= (_ bv8 8) x88)))
(assert (not (= (_ bv2 8) x84)))
(assert (not (= (_ bv2 8) x85)))
(assert (not (= (_ bv2 8) x86)))
(assert (not (= (_ bv2 8) (_ bv3 8))))
(assert (not (= (_ bv2 8) x88)))
(assert (not (= x84 x85)))
(assert (not (= x84 x86)))
(assert (not (= x84 (_ bv3 8))))
(assert (not (= x84 x88)))
(assert (not (= x85 x86)))
(assert (not (= x85 (_ bv3 8))))
(assert (not (= x85 x88)))
(assert (not (= x86 (_ bv3 8))))
(assert (not (= x86 x88)))
(assert (not (= (_ bv3 8) x88)))
(assert (not (= x00 x10)))
(assert (not (= x00 (_ bv3 8))))
(assert (not (= x00 x30)))
(assert (not (= x00 (_ bv8 8))))
(assert (not (= x00 (_ bv2 8))))
(assert (not (= x00 x60)))
(assert (not (= x00 (_ bv5 8))))
(assert (not (= x00 x80)))
(assert (not (= x10 (_ bv3 8))))
(assert (not (= x10 x30)))
(assert (not (= x10 (_ bv8 8))))
(assert (not (= x10 (_ bv2 8))))
(assert (not (= x10 x60)))
(assert (not (= x10 (_ bv5 8))))
(assert (not (= x10 x80)))
(assert (not (= (_ bv3 8) x30)))
(assert (not (= (_ bv3 8) (_ bv8 8))))
(assert (not (= (_ bv3 8) (_ bv2 8))))
(assert (not (= (_ bv3 8) x60)))
(assert (not (= (_ bv3 8) (_ bv5 8))))
(assert (not (= (_ bv3 8) x80)))
(assert (not (= x30 (_ bv8 8))))
(assert (not (= x30 (_ bv2 8))))
(assert (not (= x30 x60)))
(assert (not (= x30 (_ bv5 8))))
(assert (not (= x30 x80)))
(assert (not (= (_ bv8 8) (_ bv2 8))))
(assert (not (= (_ bv8 8) x60)))
(assert (not (= (_ bv8 8) (_ bv5 8))))
(assert (not (= (_ bv8 8) x80)))
(assert (not (= (_ bv2 8) x60)))
(assert (not (= (_ bv2 8) (_ bv5 8))))
(assert (not (= (_ bv2 8) x80)))
(assert (not (= x60 (_ bv5 8))))
(assert (not (= x60 x80)))
(assert (not (= (_ bv5 8) x80)))
(assert (not (= x01 x11)))
(assert (not (= x01 (_ bv1 8))))
(assert (not (= x01 (_ bv9 8))))
(assert (not (= x01 x41)))
(assert (not (= x01 x51)))
(assert (not (= x01 x61)))
(assert (not (= x01 (_ bv6 8))))
(assert (not (= x01 x81)))
(assert (not (= x11 (_ bv1 8))))
(assert (not (= x11 (_ bv9 8))))
(assert (not (= x11 x41)))
(assert (not (= x11 x51)))
(assert (not (= x11 x61)))
(assert (not (= x11 (_ bv6 8))))
(assert (not (= x11 x81)))
(assert (not (= (_ bv1 8) (_ bv9 8))))
(assert (not (= (_ bv1 8) x41)))
(assert (not (= (_ bv1 8) x51)))
(assert (not (= (_ bv1 8) x61)))
(assert (not (= (_ bv1 8) (_ bv6 8))))
(assert (not (= (_ bv1 8) x81)))
(assert (not (= (_ bv9 8) x41)))
(assert (not (= (_ bv9 8) x51)))
(assert (not (= (_ bv9 8) x61)))
(assert (not (= (_ bv9 8) (_ bv6 8))))
(assert (not (= (_ bv9 8) x81)))
(assert (not (= x41 x51)))
(assert (not (= x41 x61)))
(assert (not (= x41 (_ bv6 8))))
(assert (not (= x41 x81)))
(assert (not (= x51 x61)))
(assert (not (= x51 (_ bv6 8))))
(assert (not (= x51 x81)))
(assert (not (= x61 (_ bv6 8))))
(assert (not (= x61 x81)))
(assert (not (= (_ bv6 8) x81)))
(assert (not (= (_ bv9 8) x12)))
(assert (not (= (_ bv9 8) x22)))
(assert (not (= (_ bv9 8) x32)))
(assert (not (= (_ bv9 8) (_ bv7 8))))
(assert (not (= (_ bv9 8) x52)))
(assert (not (= (_ bv9 8) x62)))
(assert (not (= (_ bv9 8) x72)))
(assert (not (= (_ bv9 8) (_ bv8 8))))
(assert (not (= x12 x22)))
(assert (not (= x12 x32)))
(assert (not (= x12 (_ bv7 8))))
(assert (not (= x12 x52)))
(assert (not (= x12 x62)))
(assert (not (= x12 x72)))
(assert (not (= x12 (_ bv8 8))))
(assert (not (= x22 x32)))
(assert (not (= x22 (_ bv7 8))))
(assert (not (= x22 x52)))
(assert (not (= x22 x62)))
(assert (not (= x22 x72)))
(assert (not (= x22 (_ bv8 8))))
(assert (not (= x32 (_ bv7 8))))
(assert (not (= x32 x52)))
(assert (not (= x32 x62)))
(assert (not (= x32 x72)))
(assert (not (= x32 (_ bv8 8))))
(assert (not (= (_ bv7 8) x52)))
(assert (not (= (_ bv7 8) x62)))
(assert (not (= (_ bv7 8) x72)))
(assert (not (= (_ bv7 8) (_ bv8 8))))
(assert (not (= x52 x62)))
(assert (not (= x52 x72)))
(assert (not (= x52 (_ bv8 8))))
(assert (not (= x62 x72)))
(assert (not (= x62 (_ bv8 8))))
(assert (not (= x72 (_ bv8 8))))
(assert (not (= (_ bv4 8) (_ bv9 8))))
(assert (not (= (_ bv4 8) x23)))
(assert (not (= (_ bv4 8) x33)))
(assert (not (= (_ bv4 8) x43)))
(assert (not (= (_ bv4 8) (_ bv8 8))))
(assert (not (= (_ bv4 8) x63)))
(assert (not (= (_ bv4 8) x73)))
(assert (not (= (_ bv4 8) (_ bv2 8))))
(assert (not (= (_ bv9 8) x23)))
(assert (not (= (_ bv9 8) x33)))
(assert (not (= (_ bv9 8) x43)))
(assert (not (= (_ bv9 8) (_ bv8 8))))
(assert (not (= (_ bv9 8) x63)))
(assert (not (= (_ bv9 8) x73)))
(assert (not (= (_ bv9 8) (_ bv2 8))))
(assert (not (= x23 x33)))
(assert (not (= x23 x43)))
(assert (not (= x23 (_ bv8 8))))
(assert (not (= x23 x63)))
(assert (not (= x23 x73)))
(assert (not (= x23 (_ bv2 8))))
(assert (not (= x33 x43)))
(assert (not (= x33 (_ bv8 8))))
(assert (not (= x33 x63)))
(assert (not (= x33 x73)))
(assert (not (= x33 (_ bv2 8))))
(assert (not (= x43 (_ bv8 8))))
(assert (not (= x43 x63)))
(assert (not (= x43 x73)))
(assert (not (= x43 (_ bv2 8))))
(assert (not (= (_ bv8 8) x63)))
(assert (not (= (_ bv8 8) x73)))
(assert (not (= (_ bv8 8) (_ bv2 8))))
(assert (not (= x63 x73)))
(assert (not (= x63 (_ bv2 8))))
(assert (not (= x73 (_ bv2 8))))
(assert (not (= x04 (_ bv1 8))))
(assert (not (= x04 (_ bv2 8))))
(assert (not (= x04 (_ bv7 8))))
(assert (not (= x04 (_ bv9 8))))
(assert (not (= x04 (_ bv3 8))))
(assert (not (= x04 x64)))
(assert (not (= x04 x74)))
(assert (not (= x04 x84)))
(assert (not (= (_ bv1 8) (_ bv2 8))))
(assert (not (= (_ bv1 8) (_ bv7 8))))
(assert (not (= (_ bv1 8) (_ bv9 8))))
(assert (not (= (_ bv1 8) (_ bv3 8))))
(assert (not (= (_ bv1 8) x64)))
(assert (not (= (_ bv1 8) x74)))
(assert (not (= (_ bv1 8) x84)))
(assert (not (= (_ bv2 8) (_ bv7 8))))
(assert (not (= (_ bv2 8) (_ bv9 8))))
(assert (not (= (_ bv2 8) (_ bv3 8))))
(assert (not (= (_ bv2 8) x64)))
(assert (not (= (_ bv2 8) x74)))
(assert (not (= (_ bv2 8) x84)))
(assert (not (= (_ bv7 8) (_ bv9 8))))
(assert (not (= (_ bv7 8) (_ bv3 8))))
(assert (not (= (_ bv7 8) x64)))
(assert (not (= (_ bv7 8) x74)))
(assert (not (= (_ bv7 8) x84)))
(assert (not (= (_ bv9 8) (_ bv3 8))))
(assert (not (= (_ bv9 8) x64)))
(assert (not (= (_ bv9 8) x74)))
(assert (not (= (_ bv9 8) x84)))
(assert (not (= (_ bv3 8) x64)))
(assert (not (= (_ bv3 8) x74)))
(assert (not (= (_ bv3 8) x84)))
(assert (not (= x64 x74)))
(assert (not (= x64 x84)))
(assert (not (= x74 x84)))
(assert (not (= x05 (_ bv6 8))))
(assert (not (= x05 x25)))
(assert (not (= x05 x35)))
(assert (not (= x05 (_ bv5 8))))
(assert (not (= x05 x55)))
(assert (not (= x05 (_ bv1 8))))
(assert (not (= x05 (_ bv8 8))))
(assert (not (= x05 x85)))
(assert (not (= (_ bv6 8) x25)))
(assert (not (= (_ bv6 8) x35)))
(assert (not (= (_ bv6 8) (_ bv5 8))))
(assert (not (= (_ bv6 8) x55)))
(assert (not (= (_ bv6 8) (_ bv1 8))))
(assert (not (= (_ bv6 8) (_ bv8 8))))
(assert (not (= (_ bv6 8) x85)))
(assert (not (= x25 x35)))
(assert (not (= x25 (_ bv5 8))))
(assert (not (= x25 x55)))
(assert (not (= x25 (_ bv1 8))))
(assert (not (= x25 (_ bv8 8))))
(assert (not (= x25 x85)))
(assert (not (= x35 (_ bv5 8))))
(assert (not (= x35 x55)))
(assert (not (= x35 (_ bv1 8))))
(assert (not (= x35 (_ bv8 8))))
(assert (not (= x35 x85)))
(assert (not (= (_ bv5 8) x55)))
(assert (not (= (_ bv5 8) (_ bv1 8))))
(assert (not (= (_ bv5 8) (_ bv8 8))))
(assert (not (= (_ bv5 8) x85)))
(assert (not (= x55 (_ bv1 8))))
(assert (not (= x55 (_ bv8 8))))
(assert (not (= x55 x85)))
(assert (not (= (_ bv1 8) (_ bv8 8))))
(assert (not (= (_ bv1 8) x85)))
(assert (not (= (_ bv8 8) x85)))
(assert (not (= (_ bv5 8) (_ bv4 8))))
(assert (not (= (_ bv5 8) (_ bv8 8))))
(assert (not (= (_ bv5 8) x36)))
(assert (not (= (_ bv5 8) x46)))
(assert (not (= (_ bv5 8) x56)))
(assert (not (= (_ bv5 8) (_ bv6 8))))
(assert (not (= (_ bv5 8) (_ bv9 8))))
(assert (not (= (_ bv5 8) x86)))
(assert (not (= (_ bv4 8) (_ bv8 8))))
(assert (not (= (_ bv4 8) x36)))
(assert (not (= (_ bv4 8) x46)))
(assert (not (= (_ bv4 8) x56)))
(assert (not (= (_ bv4 8) (_ bv6 8))))
(assert (not (= (_ bv4 8) (_ bv9 8))))
(assert (not (= (_ bv4 8) x86)))
(assert (not (= (_ bv8 8) x36)))
(assert (not (= (_ bv8 8) x46)))
(assert (not (= (_ bv8 8) x56)))
(assert (not (= (_ bv8 8) (_ bv6 8))))
(assert (not (= (_ bv8 8) (_ bv9 8))))
(assert (not (= (_ bv8 8) x86)))
(assert (not (= x36 x46)))
(assert (not (= x36 x56)))
(assert (not (= x36 (_ bv6 8))))
(assert (not (= x36 (_ bv9 8))))
(assert (not (= x36 x86)))
(assert (not (= x46 x56)))
(assert (not (= x46 (_ bv6 8))))
(assert (not (= x46 (_ bv9 8))))
(assert (not (= x46 x86)))
(assert (not (= x56 (_ bv6 8))))
(assert (not (= x56 (_ bv9 8))))
(assert (not (= x56 x86)))
(assert (not (= (_ bv6 8) (_ bv9 8))))
(assert (not (= (_ bv6 8) x86)))
(assert (not (= (_ bv9 8) x86)))
(assert (not (= x07 (_ bv2 8))))
(assert (not (= x07 x27)))
(assert (not (= x07 x37)))
(assert (not (= x07 x47)))
(assert (not (= x07 x57)))
(assert (not (= x07 x67)))
(assert (not (= x07 (_ bv1 8))))
(assert (not (= x07 (_ bv3 8))))
(assert (not (= (_ bv2 8) x27)))
(assert (not (= (_ bv2 8) x37)))
(assert (not (= (_ bv2 8) x47)))
(assert (not (= (_ bv2 8) x57)))
(assert (not (= (_ bv2 8) x67)))
(assert (not (= (_ bv2 8) (_ bv1 8))))
(assert (not (= (_ bv2 8) (_ bv3 8))))
(assert (not (= x27 x37)))
(assert (not (= x27 x47)))
(assert (not (= x27 x57)))
(assert (not (= x27 x67)))
(assert (not (= x27 (_ bv1 8))))
(assert (not (= x27 (_ bv3 8))))
(assert (not (= x37 x47)))
(assert (not (= x37 x57)))
(assert (not (= x37 x67)))
(assert (not (= x37 (_ bv1 8))))
(assert (not (= x37 (_ bv3 8))))
(assert (not (= x47 x57)))
(assert (not (= x47 x67)))
(assert (not (= x47 (_ bv1 8))))
(assert (not (= x47 (_ bv3 8))))
(assert (not (= x57 x67)))
(assert (not (= x57 (_ bv1 8))))
(assert (not (= x57 (_ bv3 8))))
(assert (not (= x67 (_ bv1 8))))
(assert (not (= x67 (_ bv3 8))))
(assert (not (= (_ bv1 8) (_ bv3 8))))
(assert (not (= x08 x18)))
(assert (not (= x08 x28)))
(assert (not (= x08 x38)))
(assert (not (= x08 (_ bv6 8))))
(assert (not (= x08 (_ bv7 8))))
(assert (not (= x08 (_ bv4 8))))
(assert (not (= x08 x78)))
(assert (not (= x08 x88)))
(assert (not (= x18 x28)))
(assert (not (= x18 x38)))
(assert (not (= x18 (_ bv6 8))))
(assert (not (= x18 (_ bv7 8))))
(assert (not (= x18 (_ bv4 8))))
(assert (not (= x18 x78)))
(assert (not (= x18 x88)))
(assert (not (= x28 x38)))
(assert (not (= x28 (_ bv6 8))))
(assert (not (= x28 (_ bv7 8))))
(assert (not (= x28 (_ bv4 8))))
(assert (not (= x28 x78)))
(assert (not (= x28 x88)))
(assert (not (= x38 (_ bv6 8))))
(assert (not (= x38 (_ bv7 8))))
(assert (not (= x38 (_ bv4 8))))
(assert (not (= x38 x78)))
(assert (not (= x38 x88)))
(assert (not (= (_ bv6 8) (_ bv7 8))))
(assert (not (= (_ bv6 8) (_ bv4 8))))
(assert (not (= (_ bv6 8) x78)))
(assert (not (= (_ bv6 8) x88)))
(assert (not (= (_ bv7 8) (_ bv4 8))))
(assert (not (= (_ bv7 8) x78)))
(assert (not (= (_ bv7 8) x88)))
(assert (not (= (_ bv4 8) x78)))
(assert (not (= (_ bv4 8) x88)))
(assert (not (= x78 x88)))
(assert (not (= x00 x01)))
(assert (not (= x00 (_ bv9 8))))
(assert (not (= x00 x10)))
(assert (not (= x00 x11)))
(assert (not (= x00 x12)))
(assert (not (= x00 (_ bv3 8))))
(assert (not (= x00 (_ bv1 8))))
(assert (not (= x00 x22)))
(assert (not (= x01 (_ bv9 8))))
(assert (not (= x01 x10)))
(assert (not (= x01 x11)))
(assert (not (= x01 x12)))
(assert (not (= x01 (_ bv3 8))))
(assert (not (= x01 (_ bv1 8))))
(assert (not (= x01 x22)))
(assert (not (= (_ bv9 8) x10)))
(assert (not (= (_ bv9 8) x11)))
(assert (not (= (_ bv9 8) x12)))
(assert (not (= (_ bv9 8) (_ bv3 8))))
(assert (not (= (_ bv9 8) (_ bv1 8))))
(assert (not (= (_ bv9 8) x22)))
(assert (not (= x10 x11)))
(assert (not (= x10 x12)))
(assert (not (= x10 (_ bv3 8))))
(assert (not (= x10 (_ bv1 8))))
(assert (not (= x10 x22)))
(assert (not (= x11 x12)))
(assert (not (= x11 (_ bv3 8))))
(assert (not (= x11 (_ bv1 8))))
(assert (not (= x11 x22)))
(assert (not (= x12 (_ bv3 8))))
(assert (not (= x12 (_ bv1 8))))
(assert (not (= x12 x22)))
(assert (not (= (_ bv3 8) (_ bv1 8))))
(assert (not (= (_ bv3 8) x22)))
(assert (not (= (_ bv1 8) x22)))
(assert (not (= (_ bv4 8) x04)))
(assert (not (= (_ bv4 8) x05)))
(assert (not (= (_ bv4 8) (_ bv9 8))))
(assert (not (= (_ bv4 8) (_ bv1 8))))
(assert (not (= (_ bv4 8) (_ bv6 8))))
(assert (not (= (_ bv4 8) x23)))
(assert (not (= (_ bv4 8) (_ bv2 8))))
(assert (not (= (_ bv4 8) x25)))
(assert (not (= x04 x05)))
(assert (not (= x04 (_ bv9 8))))
(assert (not (= x04 (_ bv1 8))))
(assert (not (= x04 (_ bv6 8))))
(assert (not (= x04 x23)))
(assert (not (= x04 (_ bv2 8))))
(assert (not (= x04 x25)))
(assert (not (= x05 (_ bv9 8))))
(assert (not (= x05 (_ bv1 8))))
(assert (not (= x05 (_ bv6 8))))
(assert (not (= x05 x23)))
(assert (not (= x05 (_ bv2 8))))
(assert (not (= x05 x25)))
(assert (not (= (_ bv9 8) (_ bv1 8))))
(assert (not (= (_ bv9 8) (_ bv6 8))))
(assert (not (= (_ bv9 8) x23)))
(assert (not (= (_ bv9 8) (_ bv2 8))))
(assert (not (= (_ bv9 8) x25)))
(assert (not (= (_ bv1 8) (_ bv6 8))))
(assert (not (= (_ bv1 8) x23)))
(assert (not (= (_ bv1 8) (_ bv2 8))))
(assert (not (= (_ bv1 8) x25)))
(assert (not (= (_ bv6 8) x23)))
(assert (not (= (_ bv6 8) (_ bv2 8))))
(assert (not (= (_ bv6 8) x25)))
(assert (not (= x23 (_ bv2 8))))
(assert (not (= x23 x25)))
(assert (not (= (_ bv2 8) x25)))
(assert (not (= (_ bv5 8) x07)))
(assert (not (= (_ bv5 8) x08)))
(assert (not (= (_ bv5 8) (_ bv4 8))))
(assert (not (= (_ bv5 8) (_ bv2 8))))
(assert (not (= (_ bv5 8) x18)))
(assert (not (= (_ bv5 8) (_ bv8 8))))
(assert (not (= (_ bv5 8) x27)))
(assert (not (= (_ bv5 8) x28)))
(assert (not (= x07 x08)))
(assert (not (= x07 (_ bv4 8))))
(assert (not (= x07 (_ bv2 8))))
(assert (not (= x07 x18)))
(assert (not (= x07 (_ bv8 8))))
(assert (not (= x07 x27)))
(assert (not (= x07 x28)))
(assert (not (= x08 (_ bv4 8))))
(assert (not (= x08 (_ bv2 8))))
(assert (not (= x08 x18)))
(assert (not (= x08 (_ bv8 8))))
(assert (not (= x08 x27)))
(assert (not (= x08 x28)))
(assert (not (= (_ bv4 8) (_ bv2 8))))
(assert (not (= (_ bv4 8) x18)))
(assert (not (= (_ bv4 8) (_ bv8 8))))
(assert (not (= (_ bv4 8) x27)))
(assert (not (= (_ bv4 8) x28)))
(assert (not (= (_ bv2 8) x18)))
(assert (not (= (_ bv2 8) (_ bv8 8))))
(assert (not (= (_ bv2 8) x27)))
(assert (not (= (_ bv2 8) x28)))
(assert (not (= x18 (_ bv8 8))))
(assert (not (= x18 x27)))
(assert (not (= x18 x28)))
(assert (not (= (_ bv8 8) x27)))
(assert (not (= (_ bv8 8) x28)))
(assert (not (= x27 x28)))
(assert (not (= x30 (_ bv9 8))))
(assert (not (= x30 x32)))
(assert (not (= x30 (_ bv8 8))))
(assert (not (= x30 x41)))
(assert (not (= x30 (_ bv7 8))))
(assert (not (= x30 (_ bv2 8))))
(assert (not (= x30 x51)))
(assert (not (= x30 x52)))
(assert (not (= (_ bv9 8) x32)))
(assert (not (= (_ bv9 8) (_ bv8 8))))
(assert (not (= (_ bv9 8) x41)))
(assert (not (= (_ bv9 8) (_ bv7 8))))
(assert (not (= (_ bv9 8) (_ bv2 8))))
(assert (not (= (_ bv9 8) x51)))
(assert (not (= (_ bv9 8) x52)))
(assert (not (= x32 (_ bv8 8))))
(assert (not (= x32 x41)))
(assert (not (= x32 (_ bv7 8))))
(assert (not (= x32 (_ bv2 8))))
(assert (not (= x32 x51)))
(assert (not (= x32 x52)))
(assert (not (= (_ bv8 8) x41)))
(assert (not (= (_ bv8 8) (_ bv7 8))))
(assert (not (= (_ bv8 8) (_ bv2 8))))
(assert (not (= (_ bv8 8) x51)))
(assert (not (= (_ bv8 8) x52)))
(assert (not (= x41 (_ bv7 8))))
(assert (not (= x41 (_ bv2 8))))
(assert (not (= x41 x51)))
(assert (not (= x41 x52)))
(assert (not (= (_ bv7 8) (_ bv2 8))))
(assert (not (= (_ bv7 8) x51)))
(assert (not (= (_ bv7 8) x52)))
(assert (not (= (_ bv2 8) x51)))
(assert (not (= (_ bv2 8) x52)))
(assert (not (= x51 x52)))
(assert (not (= x33 (_ bv7 8))))
(assert (not (= x33 x35)))
(assert (not (= x33 x43)))
(assert (not (= x33 (_ bv9 8))))
(assert (not (= x33 (_ bv5 8))))
(assert (not (= x33 (_ bv8 8))))
(assert (not (= x33 (_ bv3 8))))
(assert (not (= x33 x55)))
(assert (not (= (_ bv7 8) x35)))
(assert (not (= (_ bv7 8) x43)))
(assert (not (= (_ bv7 8) (_ bv9 8))))
(assert (not (= (_ bv7 8) (_ bv5 8))))
(assert (not (= (_ bv7 8) (_ bv8 8))))
(assert (not (= (_ bv7 8) (_ bv3 8))))
(assert (not (= (_ bv7 8) x55)))
(assert (not (= x35 x43)))
(assert (not (= x35 (_ bv9 8))))
(assert (not (= x35 (_ bv5 8))))
(assert (not (= x35 (_ bv8 8))))
(assert (not (= x35 (_ bv3 8))))
(assert (not (= x35 x55)))
(assert (not (= x43 (_ bv9 8))))
(assert (not (= x43 (_ bv5 8))))
(assert (not (= x43 (_ bv8 8))))
(assert (not (= x43 (_ bv3 8))))
(assert (not (= x43 x55)))
(assert (not (= (_ bv9 8) (_ bv5 8))))
(assert (not (= (_ bv9 8) (_ bv8 8))))
(assert (not (= (_ bv9 8) (_ bv3 8))))
(assert (not (= (_ bv9 8) x55)))
(assert (not (= (_ bv5 8) (_ bv8 8))))
(assert (not (= (_ bv5 8) (_ bv3 8))))
(assert (not (= (_ bv5 8) x55)))
(assert (not (= (_ bv8 8) (_ bv3 8))))
(assert (not (= (_ bv8 8) x55)))
(assert (not (= (_ bv3 8) x55)))
(assert (not (= x36 x37)))
(assert (not (= x36 x38)))
(assert (not (= x36 x46)))
(assert (not (= x36 x47)))
(assert (not (= x36 (_ bv6 8))))
(assert (not (= x36 x56)))
(assert (not (= x36 x57)))
(assert (not (= x36 (_ bv7 8))))
(assert (not (= x37 x38)))
(assert (not (= x37 x46)))
(assert (not (= x37 x47)))
(assert (not (= x37 (_ bv6 8))))
(assert (not (= x37 x56)))
(assert (not (= x37 x57)))
(assert (not (= x37 (_ bv7 8))))
(assert (not (= x38 x46)))
(assert (not (= x38 x47)))
(assert (not (= x38 (_ bv6 8))))
(assert (not (= x38 x56)))
(assert (not (= x38 x57)))
(assert (not (= x38 (_ bv7 8))))
(assert (not (= x46 x47)))
(assert (not (= x46 (_ bv6 8))))
(assert (not (= x46 x56)))
(assert (not (= x46 x57)))
(assert (not (= x46 (_ bv7 8))))
(assert (not (= x47 (_ bv6 8))))
(assert (not (= x47 x56)))
(assert (not (= x47 x57)))
(assert (not (= x47 (_ bv7 8))))
(assert (not (= (_ bv6 8) x56)))
(assert (not (= (_ bv6 8) x57)))
(assert (not (= (_ bv6 8) (_ bv7 8))))
(assert (not (= x56 x57)))
(assert (not (= x56 (_ bv7 8))))
(assert (not (= x57 (_ bv7 8))))
(assert (not (= x60 x61)))
(assert (not (= x60 x62)))
(assert (not (= x60 (_ bv5 8))))
(assert (not (= x60 (_ bv6 8))))
(assert (not (= x60 x72)))
(assert (not (= x60 x80)))
(assert (not (= x60 x81)))
(assert (not (= x60 (_ bv8 8))))
(assert (not (= x61 x62)))
(assert (not (= x61 (_ bv5 8))))
(assert (not (= x61 (_ bv6 8))))
(assert (not (= x61 x72)))
(assert (not (= x61 x80)))
(assert (not (= x61 x81)))
(assert (not (= x61 (_ bv8 8))))
(assert (not (= x62 (_ bv5 8))))
(assert (not (= x62 (_ bv6 8))))
(assert (not (= x62 x72)))
(assert (not (= x62 x80)))
(assert (not (= x62 x81)))
(assert (not (= x62 (_ bv8 8))))
(assert (not (= (_ bv5 8) (_ bv6 8))))
(assert (not (= (_ bv5 8) x72)))
(assert (not (= (_ bv5 8) x80)))
(assert (not (= (_ bv5 8) x81)))
(assert (not (= (_ bv5 8) (_ bv8 8))))
(assert (not (= (_ bv6 8) x72)))
(assert (not (= (_ bv6 8) x80)))
(assert (not (= (_ bv6 8) x81)))
(assert (not (= (_ bv6 8) (_ bv8 8))))
(assert (not (= x72 x80)))
(assert (not (= x72 x81)))
(assert (not (= x72 (_ bv8 8))))
(assert (not (= x80 x81)))
(assert (not (= x80 (_ bv8 8))))
(assert (not (= x81 (_ bv8 8))))
(assert (not (= x63 x64)))
(assert (not (= x63 (_ bv1 8))))
(assert (not (= x63 x73)))
(assert (not (= x63 x74)))
(assert (not (= x63 (_ bv8 8))))
(assert (not (= x63 (_ bv2 8))))
(assert (not (= x63 x84)))
(assert (not (= x63 x85)))
(assert (not (= x64 (_ bv1 8))))
(assert (not (= x64 x73)))
(assert (not (= x64 x74)))
(assert (not (= x64 (_ bv8 8))))
(assert (not (= x64 (_ bv2 8))))
(assert (not (= x64 x84)))
(assert (not (= x64 x85)))
(assert (not (= (_ bv1 8) x73)))
(assert (not (= (_ bv1 8) x74)))
(assert (not (= (_ bv1 8) (_ bv8 8))))
(assert (not (= (_ bv1 8) (_ bv2 8))))
(assert (not (= (_ bv1 8) x84)))
(assert (not (= (_ bv1 8) x85)))
(assert (not (= x73 x74)))
(assert (not (= x73 (_ bv8 8))))
(assert (not (= x73 (_ bv2 8))))
(assert (not (= x73 x84)))
(assert (not (= x73 x85)))
(assert (not (= x74 (_ bv8 8))))
(assert (not (= x74 (_ bv2 8))))
(assert (not (= x74 x84)))
(assert (not (= x74 x85)))
(assert (not (= (_ bv8 8) (_ bv2 8))))
(assert (not (= (_ bv8 8) x84)))
(assert (not (= (_ bv8 8) x85)))
(assert (not (= (_ bv2 8) x84)))
(assert (not (= (_ bv2 8) x85)))
(assert (not (= x84 x85)))
(assert (not (= (_ bv6 8) x67)))
(assert (not (= (_ bv6 8) (_ bv4 8))))
(assert (not (= (_ bv6 8) (_ bv9 8))))
(assert (not (= (_ bv6 8) (_ bv1 8))))
(assert (not (= (_ bv6 8) x78)))
(assert (not (= (_ bv6 8) x86)))
(assert (not (= (_ bv6 8) (_ bv3 8))))
(assert (not (= (_ bv6 8) x88)))
(assert (not (= x67 (_ bv4 8))))
(assert (not (= x67 (_ bv9 8))))
(assert (not (= x67 (_ bv1 8))))
(assert (not (= x67 x78)))
(assert (not (= x67 x86)))
(assert (not (= x67 (_ bv3 8))))
(assert (not (= x67 x88)))
(assert (not (= (_ bv4 8) (_ bv9 8))))
(assert (not (= (_ bv4 8) (_ bv1 8))))
(assert (not (= (_ bv4 8) x78)))
(assert (not (= (_ bv4 8) x86)))
(assert (not (= (_ bv4 8) (_ bv3 8))))
(assert (not (= (_ bv4 8) x88)))
(assert (not (= (_ bv9 8) (_ bv1 8))))
(assert (not (= (_ bv9 8) x78)))
(assert (not (= (_ bv9 8) x86)))
(assert (not (= (_ bv9 8) (_ bv3 8))))
(assert (not (= (_ bv9 8) x88)))
(assert (not (= (_ bv1 8) x78)))
(assert (not (= (_ bv1 8) x86)))
(assert (not (= (_ bv1 8) (_ bv3 8))))
(assert (not (= (_ bv1 8) x88)))
(assert (not (= x78 x86)))
(assert (not (= x78 (_ bv3 8))))
(assert (not (= x78 x88)))
(assert (not (= x86 (_ bv3 8))))
(assert (not (= x86 x88)))
(assert (not (= (_ bv3 8) x88)))
(check-sat)
(exit)
